NAME: tsp_20
TYPE: TSP
DIMENSION: 20
EDGE_WEIGHT_TYPE: EUC_2D
NODE_COORD_SECTION
1 56 295
2 96 168
3 91 279
4 69 76
5 92 230
6 16 73
7 73 331
8 24 123
9 85 271
10 19 227
11 59 302
12 18 141
13 54 39
14 74 231
15 11 325
16 9 171
17 28 290
18 47 385
19 0 333
20 89 260
EOF
